c t mc
c file track1_115.cnf
p cnf 1920 1640
-42 -61 0
401 -42 0
405 -7 -3 0
-406 7 3 0
-405 7 -3 0
406 -7 3 0
-7 8 0
7 -8 0
-415 9 -8 0
415 -9 -8 0
-416 9 8 0
416 -9 8 0
-9 -417 10 0
-9 417 -10 0
9 -418 10 0
9 418 -10 0
-10 -11 0
10 11 0
-31 32 13 0
421 -11 -13 0
-422 11 13 0
-421 -11 13 0
-425 14 -13 0
425 -14 -13 0
-426 14 13 0
-14 426 13 0
-427 -14 15 0
427 -14 -15 0
-428 14 15 0
428 14 -15 0
-429 -15 16 0
429 -15 -16 0
-430 15 16 0
430 15 -16 0
-507 -16 38 37 0
-16 36 37 0
16 -37 0
3 -402 -61 0
-3 61 42 0
-463 -7 27 0
463 -7 -27 0
-464 7 27 0
464 7 -27 0
-8 -27 28 -465 0
-8 -27 -28 465 0
8 -27 28 -466 0
466 -27 -28 8 0
-8 27 28 -467 0
-8 27 -28 467 0
8 27 28 -468 0
8 27 -28 468 0
-28 29 0
28 -29 0
-473 -10 -29 30 0
473 -10 -29 -30 0
-474 -29 30 10 0
474 -29 -30 10 0
-475 -10 29 30 0
475 -10 29 -30 0
-476 29 30 10 0
476 29 -30 10 0
-11 -30 31 -477 0
-11 -30 -31 477 0
11 -30 31 -478 0
478 -30 -31 11 0
-11 30 31 -479 0
-11 30 -31 479 0
11 30 31 -480 0
11 30 -31 480 0
11 422 -13 0
31 -32 0
-32 -33 0
-13 33 0
13 -33 0
-14 -33 34 -489 0
-14 -33 -34 489 0
14 -33 34 -490 0
490 -33 -34 14 0
-14 33 34 -491 0
-14 33 -34 491 0
14 33 34 -492 0
14 33 -34 492 0
-15 -34 35 -493 0
-15 -34 -35 493 0
15 -34 35 -494 0
494 -34 -35 15 0
-15 -495 35 34 0
-15 495 -35 34 0
15 -496 35 34 0
15 496 -35 34 0
-35 -16 36 0
16 -36 0
35 -36 0
-36 -37 0
-505 -37 38 0
505 -37 -38 0
-508 36 38 37 0
507 -16 37 -38 0
16 508 -38 0
3 -42 0
-401 61 42 0
-42 -43 0
43 42 0
43 64 0
-27 -539 47 0
-27 539 -47 0
27 -540 47 0
27 540 -47 0
-543 -47 48 -28 0
543 -47 -48 -28 0
-544 28 -47 48 0
544 -47 -48 28 0
-545 47 48 -28 0
545 47 -48 -28 0
-546 28 47 48 0
546 28 47 -48 0
-29 -48 49 -547 0
-29 -48 -49 547 0
29 -48 49 -548 0
548 -48 -49 29 0
-29 48 49 -549 0
-29 48 -49 549 0
29 48 49 -550 0
29 48 -49 550 0
-30 -49 50 -551 0
-30 -49 -50 551 0
30 -49 50 -552 0
552 -49 -50 30 0
-30 49 50 -553 0
-30 49 -50 553 0
30 49 50 -554 0
30 49 -50 554 0
-555 -50 51 -31 0
555 -31 -50 -51 0
31 -50 51 -556 0
556 -50 -51 31 0
-557 50 51 -31 0
557 -31 50 -51 0
31 50 51 -558 0
31 50 -51 558 0
-32 -51 52 -559 0
-32 -51 -52 559 0
-560 -51 52 32 0
560 -51 -52 32 0
-32 51 52 -561 0
-32 51 -52 561 0
-562 51 52 32 0
562 32 51 -52 0
-33 -563 53 -52 0
-33 -52 -53 563 0
33 -52 53 -564 0
564 -52 -53 33 0
-33 52 53 -565 0
-33 52 -53 565 0
33 52 53 -566 0
33 52 -53 566 0
-34 -54 0
-53 -54 0
34 54 53 0
-571 -54 55 -35 0
571 -35 -54 -55 0
35 -54 55 -572 0
572 -54 -55 35 0
-573 54 55 -35 0
573 -35 54 -55 0
35 54 55 -574 0
35 54 -55 574 0
-36 -575 56 -55 0
-36 575 -55 -56 0
-576 36 56 -55 0
576 36 -55 -56 0
-36 -577 56 55 0
-36 577 -56 55 0
-578 36 56 55 0
36 578 -56 55 0
-37 57 0
-56 57 0
37 56 -57 0
-38 -583 58 -57 0
-38 583 -58 -57 0
38 -584 58 -57 0
584 38 -58 -57 0
-38 57 58 -585 0
-38 57 -58 585 0
38 57 58 -586 0
38 57 -58 586 0
-3 402 -61 0
-598 62 -61 0
-62 598 -61 0
-599 -42 62 0
599 -42 -62 0
-600 62 61 42 0
600 -62 61 42 0
-601 -62 63 -43 0
601 -62 -63 -43 0
43 -62 63 -602 0
602 -62 -63 43 0
-603 62 63 -43 0
603 62 -63 -43 0
43 62 63 -604 0
43 62 -63 604 0
-64 -63 -43 0
63 64 0
-47 -619 67 0
-47 619 -67 0
47 -620 67 0
47 620 -67 0
-67 -48 68 -621 0
-67 -48 -68 621 0
-67 48 68 -622 0
-67 622 -68 48 0
-48 67 68 -623 0
-48 67 -68 623 0
67 48 68 -624 0
48 67 -68 624 0
-49 -68 -69 0
49 -68 69 0
-49 68 69 0
49 68 -69 0
-50 -69 70 -629 0
-50 -69 -70 629 0
50 -69 70 -630 0
630 -69 -70 50 0
-50 -631 70 69 0
-50 631 69 -70 0
50 -632 70 69 0
50 632 69 -70 0
-51 -70 71 -633 0
-51 -70 -71 633 0
51 -70 71 -634 0
634 -70 -71 51 0
-51 -635 70 71 0
-51 -71 70 635 0
51 -636 70 71 0
51 -71 70 636 0
-52 -71 72 -637 0
-52 -71 -72 637 0
52 -71 72 -638 0
638 -71 -72 52 0
-52 -639 72 71 0
-52 639 71 -72 0
52 -640 72 71 0
52 640 71 -72 0
-53 -72 73 0
-73 53 0
-73 72 0
54 74 0
-54 -74 0
-55 -75 0
55 75 0
-56 -75 76 -653 0
-56 -75 -76 653 0
-654 56 -75 76 0
654 -75 -76 56 0
-56 -655 76 75 0
-56 655 -76 75 0
-656 56 75 76 0
56 656 -76 75 0
-76 -77 0
-57 76 77 0
57 -77 0
-58 -77 78 -661 0
-58 -77 -78 661 0
58 -77 78 -662 0
662 -77 -78 58 0
-58 -663 78 77 0
-58 -78 77 663 0
58 -664 78 77 0
58 -78 77 664 0
-61 -81 0
61 81 0
-675 -81 82 -62 0
675 -81 -82 -62 0
-676 62 -81 82 0
676 -81 -82 62 0
-62 -677 82 81 0
-62 677 -82 81 0
62 81 82 -678 0
62 678 -82 81 0
-679 -63 -82 83 0
679 -63 -82 -83 0
63 -680 -82 83 0
680 -83 -82 63 0
-681 -63 82 83 0
681 -63 82 -83 0
63 -682 83 82 0
63 -83 82 682 0
-64 -83 84 -683 0
-64 -83 -84 683 0
64 -83 84 -684 0
684 -83 -84 64 0
-64 -685 84 83 0
-64 685 83 -84 0
64 -686 84 83 0
64 686 83 -84 0
-68 -699 88 0
-68 699 -88 0
68 -700 88 0
68 700 -88 0
-69 -89 0
69 89 -88 0
88 -89 0
-70 90 0
70 -89 -90 0
89 90 0
-71 91 0
71 -91 -90 0
90 91 0
-72 92 0
-91 92 0
72 -92 91 0
-73 -719 93 0
-73 719 -93 0
-720 -92 73 93 0
720 -92 73 -93 0
-722 92 93 0
722 92 -93 0
-74 -723 94 -93 0
-74 723 -94 -93 0
74 -724 94 -93 0
724 74 -94 -93 0
-74 -725 94 93 0
-74 725 93 -94 0
74 -726 94 93 0
74 726 93 -94 0
-75 -95 0
75 -94 95 0
94 -95 0
-76 -95 96 -731 0
-76 -95 -96 731 0
-95 96 76 -732 0
732 -95 -96 76 0
-76 95 96 -733 0
-76 95 -96 733 0
95 96 76 -734 0
734 95 -96 76 0
-77 97 0
77 -97 -96 0
96 97 0
117 97 -138 0
78 -117 -138 -97 0
-751 -81 101 0
751 -81 -101 0
81 -752 101 0
752 81 -101 0
753 -82 -103 -101 83 0
82 -756 103 101 0
82 -103 83 101 756 0
-82 -755 103 101 0
-82 -103 83 101 755 0
82 -754 -101 103 0
-83 103 0
-82 -753 -101 103 0
-103 83 -101 82 754 0
-84 -103 104 -761 0
-84 -103 -104 761 0
84 -103 104 -762 0
762 -103 -104 84 0
-84 -763 104 103 0
-84 763 -104 103 0
84 -764 104 103 0
84 764 -104 103 0
-777 -88 108 0
777 -88 -108 0
88 -778 108 0
88 778 -108 0
-781 -89 -108 109 0
781 -89 -108 -109 0
89 -108 109 -782 0
782 -108 -109 89 0
-783 -89 108 109 0
783 -89 108 -109 0
89 108 109 -784 0
89 108 -109 784 0
-785 -90 -109 110 0
785 -90 -109 -110 0
90 110 -109 -786 0
786 -110 -109 90 0
-787 -90 109 110 0
787 -90 109 -110 0
90 110 109 -788 0
90 -110 109 788 0
-110 -91 111 -789 0
-110 -91 -111 789 0
-110 -790 91 111 0
-110 790 -111 91 0
-91 110 111 -791 0
-91 110 -111 791 0
110 -792 91 111 0
110 792 91 -111 0
-92 -111 112 -793 0
-92 -111 -112 793 0
92 -111 112 -794 0
794 -111 -112 92 0
-92 111 112 -795 0
-92 111 -112 795 0
92 111 112 -796 0
92 111 -112 796 0
-93 113 0
93 -113 0
-801 -94 114 -113 0
801 -94 -113 -114 0
94 -802 114 -113 0
802 94 -114 -113 0
-803 -94 114 113 0
803 -94 113 -114 0
94 -804 114 113 0
94 804 -114 113 0
-95 -114 115 -805 0
-95 -115 -114 805 0
95 -114 115 -806 0
806 -115 -114 95 0
-95 115 114 -807 0
-95 -115 114 807 0
95 115 114 -808 0
95 -115 114 808 0
-115 -116 0
-96 115 116 0
96 -116 0
-813 -97 -116 117 0
813 -117 -116 -97 0
117 97 -116 -814 0
814 -117 -116 97 0
-815 -97 116 117 0
815 -117 116 -97 0
117 97 116 -816 0
816 97 116 -117 0
117 -97 138 -137 78 0
117 -78 -138 0
-101 161 0
-122 -161 0
-103 -123 0
103 123 -122 0
-123 122 0
-104 -123 124 -839 0
-104 -123 -124 839 0
104 -123 124 -840 0
840 -123 -124 104 0
-104 124 123 -841 0
-104 123 -124 841 0
104 124 123 -842 0
104 123 -124 842 0
124 146 0
-850 124 126 0
-126 -146 -124 -144 0
848 -126 -124 0
-851 127 -126 0
-127 851 -126 0
-853 126 127 0
853 126 -127 0
-108 -127 128 -855 0
-108 -127 -128 855 0
108 -127 128 -856 0
856 -127 -128 108 0
-108 127 128 -857 0
-108 127 -128 857 0
108 127 128 -858 0
108 127 -128 858 0
-109 129 -128 0
109 -129 0
128 -129 0
-129 130 0
129 -130 0
-111 -130 151 0
-111 130 -151 0
112 151 152 872 0
-112 151 152 871 0
-874 -151 152 112 0
-112 -151 152 -873 0
-113 -133 0
113 133 0
-114 134 -133 0
-134 114 -133 0
-134 -114 133 0
133 114 134 0
-115 -134 135 -883 0
-115 -134 -135 883 0
-884 -134 135 115 0
884 -134 -135 115 0
-115 134 135 -885 0
-115 134 -135 885 0
-886 134 135 115 0
886 115 134 -135 0
-116 -136 -135 0
116 136 -135 0
-116 136 135 0
-136 116 135 0
-117 -136 137 -891 0
891 -136 -137 -117 0
117 -136 137 -892 0
892 -136 -137 117 0
-117 136 137 -893 0
893 136 -137 -117 0
117 136 137 -894 0
117 136 -137 894 0
-78 138 -137 -117 0
97 -117 138 -137 0
137 -138 0
-909 142 -122 0
909 -142 -122 0
-912 142 122 0
912 -142 122 0
-123 -142 143 -913 0
-123 913 -143 -142 0
-914 -142 143 123 0
914 -142 -143 123 0
-123 142 143 -915 0
-123 915 -143 142 0
142 143 123 -916 0
916 142 123 -143 0
-917 -143 -124 144 0
917 -143 -124 -144 0
124 -918 144 -143 0
918 124 -144 -143 0
-919 143 -124 144 0
919 143 -124 -144 0
124 143 144 -920 0
124 143 -144 920 0
144 146 0
124 -126 850 0
-848 126 -124 0
126 146 0
-127 -146 147 -929 0
-127 -146 -147 929 0
127 -146 147 -930 0
930 -146 -147 127 0
-127 -931 147 146 0
-127 931 146 -147 0
127 -932 147 146 0
127 932 146 -147 0
-147 -148 0
147 148 -128 0
128 -148 0
-148 -937 149 -129 0
-148 937 -129 -149 0
-938 -148 149 129 0
938 -148 -149 129 0
148 -939 149 -129 0
148 939 -129 -149 0
-940 148 149 129 0
940 129 148 -149 0
130 -149 170 0
130 149 -170 169 0
111 -130 -151 0
130 111 151 0
-112 151 -152 -871 0
-112 -151 -152 873 0
112 151 -152 -872 0
112 -151 -152 874 0
-134 152 -174 0
133 -134 -174 0
-152 -134 174 -133 0
133 134 174 0
-135 155 0
135 -155 0
-136 -155 156 -965 0
-136 -155 -156 965 0
136 -155 156 -966 0
966 -155 -156 136 0
-136 -967 156 155 0
-136 967 155 -156 0
136 -968 156 155 0
136 968 155 -156 0
-969 -156 -137 157 0
969 -156 -157 -137 0
137 157 -156 -970 0
970 -156 -157 137 0
-971 156 -137 157 0
971 156 -157 -137 0
137 157 156 -972 0
137 156 -157 972 0
973 -138 198 -157 0
138 157 -198 197 -177 -976 0
157 138 198 976 0
157 -138 -177 -198 197 -975 0
157 -138 198 975 0
138 -157 -198 197 -177 -974 0
122 101 0
987 -142 -161 -163 0
142 161 163 -143 -990 0
142 161 -163 990 0
-142 161 163 -143 -989 0
-142 161 -163 989 0
142 -161 163 -143 -988 0
-142 -161 163 -143 -987 0
143 -163 0
142 -161 -163 988 0
144 -163 165 996 0
995 -163 -144 165 0
144 163 -165 -998 0
-997 163 -144 -165 0
144 -163 -165 -996 0
-995 -163 -144 -165 0
144 163 165 998 0
997 163 165 -144 0
-146 166 0
146 -166 -165 0
165 166 0
-147 -166 167 -1007 0
-147 -166 -167 1007 0
-1008 -166 167 147 0
1008 -166 -167 147 0
-147 166 167 -1009 0
-147 166 -167 1009 0
-1010 166 167 147 0
1010 166 -167 147 0
-148 -167 168 -1011 0
-148 -167 -168 1011 0
148 -167 168 -1012 0
1012 -167 -168 148 0
-148 167 168 -1013 0
-148 167 -168 1013 0
148 167 168 -1014 0
148 167 -168 1014 0
-1015 -168 169 -149 0
-149 -168 -169 1015 0
-1016 149 -168 169 0
1016 -168 -169 149 0
-1017 168 169 -149 0
-149 168 -169 1017 0
-1018 149 168 169 0
149 168 -169 1018 0
-169 170 0
-130 169 -170 -149 0
149 -130 170 0
-151 -1023 171 -170 0
-151 1023 -171 -170 0
151 -1024 171 -170 0
1024 151 -171 -170 0
-151 -1025 171 170 0
-151 1025 -171 170 0
151 -1026 171 170 0
151 1026 -171 170 0
-152 -171 172 -1027 0
1027 -171 -172 -152 0
152 -171 172 -1028 0
1028 -171 -172 152 0
-152 171 172 -1029 0
-152 171 -172 1029 0
152 171 172 -1030 0
152 171 -172 1030 0
-133 -152 -174 134 0
134 152 174 0
-155 175 0
155 -175 -174 0
174 175 0
-156 -175 176 -1043 0
-156 -175 -176 1043 0
156 -175 176 -1044 0
1044 -175 -176 156 0
-156 -1045 176 175 0
-156 1045 175 -176 0
156 -1046 176 175 0
156 1046 175 -176 0
-176 177 0
176 -177 0
177 198 0
-161 -1063 181 0
-161 1063 -181 0
161 -1064 181 0
161 1064 -181 0
-182 -181 0
182 181 0
-163 183 -182 -1069 0
-163 -183 -182 1069 0
163 183 -182 -1070 0
1070 -183 -182 163 0
-163 183 182 -1071 0
-163 -183 182 1071 0
163 183 182 -1072 0
163 -183 182 1072 0
-183 -184 0
183 184 0
-1077 -165 -184 185 0
1077 -165 -184 -185 0
165 -184 185 -1078 0
1078 -184 -185 165 0
-1079 -165 184 185 0
1079 -165 184 -185 0
165 184 185 -1080 0
165 184 -185 1080 0
-166 -185 186 -1081 0
-166 -185 -186 1081 0
166 -185 186 -1082 0
1082 -185 -186 166 0
-166 185 186 -1083 0
-166 185 -186 1083 0
166 185 186 -1084 0
166 185 -186 1084 0
-167 -186 187 -1085 0
-167 -186 -187 1085 0
167 -186 187 -1086 0
1086 -186 -187 167 0
-167 186 187 -1087 0
-167 186 -187 1087 0
167 186 187 -1088 0
167 186 -187 1088 0
-168 -1089 188 -187 0
-168 1089 -187 -188 0
168 -1090 188 -187 0
1090 168 -187 -188 0
-168 -1091 188 187 0
-168 1091 187 -188 0
168 -1092 188 187 0
168 1092 187 -188 0
1093 -169 209 -188 208 0
188 -1096 169 -209 0
188 1096 169 208 209 0
188 -169 -209 -1095 0
-169 209 208 188 1095 0
-188 -1094 169 -209 0
-170 -190 0
170 190 0
-171 -190 191 0
171 -190 -191 0
-171 190 -191 0
171 190 191 0
-1105 -191 192 -172 0
1105 -191 -172 -192 0
172 -191 192 -1106 0
1106 -191 -192 172 0
-1107 191 192 -172 0
1107 191 -172 -192 0
172 191 192 -1108 0
1108 191 -192 172 0
-172 -192 -193 0
172 193 0
192 193 0
-1113 -174 -193 194 0
1113 -174 -193 -194 0
174 -1114 194 -193 0
1114 174 -193 -194 0
-1115 -174 193 194 0
1115 -194 193 -174 0
174 194 193 -1116 0
174 -194 193 1116 0
-175 195 0
-194 195 0
175 -195 194 0
-1121 -195 196 -176 0
1121 -195 -196 -176 0
-1122 176 -195 196 0
1122 -195 -196 176 0
-1123 195 196 -176 0
1123 195 -196 -176 0
-1124 176 195 196 0
1124 176 195 -196 0
-1125 -196 197 -177 0
1125 -196 -197 -177 0
177 -196 197 -1126 0
1126 -196 -197 177 0
-1127 196 197 -177 0
1127 196 -197 -177 0
177 196 197 -1128 0
177 196 -197 1128 0
138 -157 198 974 0
-197 198 0
-138 -157 -198 197 -177 -973 0
-181 221 0
-1143 202 -182 0
-202 1143 -182 0
-1146 202 182 0
1146 -202 182 0
-1147 -183 -202 203 0
1147 -183 -202 -203 0
-1148 -202 203 183 0
1148 -202 -203 183 0
-1149 -183 202 203 0
1149 -183 202 -203 0
-1150 202 203 183 0
1150 202 -203 183 0
-184 -203 204 -1151 0
-184 -203 -204 1151 0
184 -203 204 -1152 0
1152 -203 -204 184 0
-184 203 204 -1153 0
-184 203 -204 1153 0
184 203 204 -1154 0
184 203 -204 1154 0
-185 -204 205 -1155 0
-185 -204 -205 1155 0
185 -204 205 -1156 0
1156 -204 -205 185 0
-185 204 205 -1157 0
-185 204 -205 1157 0
185 204 205 -1158 0
185 204 -205 1158 0
206 -205 0
-186 205 -206 0
186 206 0
-187 -207 0
187 207 0
-1167 -188 -207 208 0
-188 1167 -207 -208 0
188 -1168 208 -207 0
1168 188 -207 -208 0
-1169 -188 207 208 0
-188 207 -208 1169 0
188 207 208 -1170 0
188 207 -208 1170 0
-169 -188 -209 -1093 0
-208 -209 0
-188 209 208 169 1094 0
-190 210 -209 -1175 0
-190 -210 -209 1175 0
190 210 -209 -1176 0
1176 -210 -209 190 0
-190 -1177 210 209 0
-190 1177 -210 209 0
190 -1178 210 209 0
190 1178 -210 209 0
-191 -210 211 -1179 0
-191 -210 -211 1179 0
191 -210 211 -1180 0
1180 -210 -211 191 0
-191 210 211 -1181 0
-191 210 -211 1181 0
191 210 211 -1182 0
191 210 -211 1182 0
-192 -212 -211 0
192 -211 212 0
211 -192 212 0
192 211 -212 0
-212 213 0
-193 -213 212 0
193 213 0
-194 -213 214 -1191 0
-194 -213 -214 1191 0
-1192 194 -213 214 0
1192 -213 -214 194 0
-194 213 214 -1193 0
-194 213 -214 1193 0
-1194 194 213 214 0
1194 194 213 -214 0
-195 -1195 215 -214 0
-195 1195 -215 -214 0
195 -1196 215 -214 0
1196 195 -215 -214 0
-195 214 215 -1197 0
-195 214 -215 1197 0
195 214 215 -1198 0
195 214 -215 1198 0
-196 -215 216 -1199 0
-196 -215 -216 1199 0
196 -215 216 -1200 0
1200 -215 -216 196 0
-196 215 216 -1201 0
-196 215 -216 1201 0
196 215 216 -1202 0
196 215 -216 1202 0
-197 -1203 217 -216 0
-197 1203 -217 -216 0
-1204 197 -216 217 0
1204 197 -217 -216 0
-197 216 217 -1205 0
-197 216 -217 1205 0
-1206 197 216 217 0
1206 197 216 -217 0
-198 -1207 218 -217 0
-198 1207 -217 -218 0
198 -1208 218 -217 0
1208 198 -217 -218 0
-198 217 218 -1209 0
-198 217 -218 1209 0
198 217 218 -1210 0
198 217 -218 1210 0
1292 -218 -239 238 0
1290 -218 -239 -238 0
181 -221 0
-202 -1221 -221 222 0
-202 1221 -222 -221 0
202 -1222 -221 222 0
1222 202 -222 -221 0
-202 222 221 -1223 0
-202 1223 221 -222 0
202 222 221 -1224 0
202 1224 221 -222 0
-203 -1225 223 -222 0
-203 1225 -222 -223 0
203 -1226 223 -222 0
1226 203 -222 -223 0
-203 222 223 -1227 0
-203 222 -223 1227 0
203 222 223 -1228 0
203 222 -223 1228 0
-204 -223 224 -1229 0
-204 -223 -224 1229 0
204 -223 224 -1230 0
1230 -223 -224 204 0
-204 223 224 -1231 0
-204 223 -224 1231 0
204 223 224 -1232 0
204 223 -224 1232 0
-205 -225 -224 0
205 225 0
224 225 0
-206 -225 226 -1237 0
-206 -225 -226 1237 0
206 -1238 226 0
206 1238 -226 0
-1239 225 226 0
1239 -226 225 0
-226 227 0
-207 -227 226 0
207 227 0
-208 228 -227 -1245 0
-208 1245 -228 -227 0
208 228 -227 -1246 0
1246 -227 -228 208 0
-208 -1247 228 227 0
-208 1247 -228 227 0
228 -1248 208 227 0
1248 208 -228 227 0
-209 -229 0
209 229 -228 0
228 -229 0
-210 -229 230 -1253 0
-210 -229 -230 1253 0
210 -229 230 -1254 0
1254 -229 -230 210 0
-210 -1255 230 229 0
-210 1255 229 -230 0
210 -1256 230 229 0
210 1256 229 -230 0
-1257 -230 231 -211 0
-211 -230 -231 1257 0
211 -230 231 -1258 0
1258 -230 -231 211 0
-1259 230 231 -211 0
-211 230 -231 1259 0
211 230 231 -1260 0
211 230 -231 1260 0
-212 -232 0
-232 -231 0
232 212 231 0
-232 -213 233 -1265 0
-232 -213 -233 1265 0
-232 213 233 -1266 0
-232 1266 -233 213 0
-213 232 233 -1267 0
-213 232 -233 1267 0
213 232 233 -1268 0
213 232 -233 1268 0
-233 -234 0
-214 234 233 0
214 -234 0
-215 -1273 235 -234 0
-215 1273 -235 -234 0
215 -1274 235 -234 0
1274 215 -235 -234 0
-215 -1275 235 234 0
-215 1275 234 -235 0
215 -1276 235 234 0
215 1276 234 -235 0
-235 236 0
-216 -236 235 0
216 236 0
237 -236 0
-217 -237 236 0
217 237 0
-1285 -218 -237 238 0
1285 -218 -237 -238 0
-1286 218 -237 238 0
1286 218 -237 -238 0
-1287 -218 237 238 0
1287 -218 237 -238 0
-1288 218 237 238 0
1288 218 237 -238 0
218 238 239 -1291 0
218 238 -239 1291 0
-218 238 239 -1292 0
218 -238 239 -1289 0
218 -238 -239 1289 0
-218 -238 239 -1290 0
-221 241 0
221 -241 0
-222 -241 -242 0
222 242 0
241 242 0
-223 -1303 243 -242 0
-223 1303 -242 -243 0
223 -1304 243 -242 0
1304 223 -242 -243 0
-223 242 243 -1305 0
-223 242 -243 1305 0
223 242 243 -1306 0
223 242 -243 1306 0
-1307 -243 -224 244 0
1307 -243 -244 -224 0
224 -243 244 -1308 0
1308 -243 -244 224 0
-1309 243 -224 244 0
1309 243 -244 -224 0
224 243 244 -1310 0
224 243 -244 1310 0
-225 -245 0
-245 -244 0
225 245 244 0
-226 -245 246 -1315 0
-226 -245 -246 1315 0
-245 246 226 -1316 0
1316 -245 -246 226 0
-226 246 245 -1317 0
-226 -246 245 1317 0
246 226 245 -1318 0
-246 226 245 1318 0
-227 247 0
227 -247 0
-247 248 0
-228 -248 247 0
228 248 0
-229 249 0
229 -248 -249 0
249 248 0
-230 250 -249 -1331 0
-230 -250 -249 1331 0
230 250 -249 -1332 0
1332 -250 -249 230 0
-230 249 250 -1333 0
-230 249 -250 1333 0
230 249 250 -1334 0
230 249 -250 1334 0
-231 -250 251 -1335 0
-231 -250 -251 1335 0
231 -250 251 -1336 0
1336 -250 -251 231 0
-231 250 251 -1337 0
-231 250 -251 1337 0
231 250 251 -1338 0
231 250 -251 1338 0
-251 252 0
-252 251 0
-252 253 0
-233 -253 252 0
253 233 0
-234 254 0
234 -254 0
-235 -254 255 -1351 0
-235 -254 -255 1351 0
-1352 -254 235 255 0
1352 -254 -255 235 0
-235 254 255 -1353 0
-235 254 -255 1353 0
-1354 254 235 255 0
1354 254 235 -255 0
255 276 0
236 -255 -276 0
-257 -237 0
237 257 0
-238 -257 258 -1363 0
-238 -257 -258 1363 0
-257 238 258 -1364 0
-257 1364 -258 238 0
-238 257 258 -1365 0
-238 257 -258 1365 0
238 257 258 -1366 0
238 257 -258 1366 0
1367 -239 279 -258 -278 0
239 258 -279 -1370 0
239 258 279 -278 1370 0
258 -239 -279 -1369 0
-239 258 279 -278 1369 0
239 -258 -279 -1368 0
-241 -1375 261 0
1375 -241 -261 0
241 -1376 261 0
241 1376 -261 0
-242 -262 -261 0
242 262 0
261 262 0
-243 -1381 263 -262 0
-243 -263 -262 1381 0
243 -1382 263 -262 0
1382 -263 -262 243 0
-243 -1383 263 262 0
-243 -263 262 1383 0
243 -1384 263 262 0
243 -263 262 1384 0
-244 -263 264 0
-263 244 -264 0
-244 -264 263 0
244 264 263 0
-245 -1389 -264 265 0
-245 -264 -265 1389 0
245 -1390 -264 265 0
1390 -264 -265 245 0
-245 -1391 265 264 0
-245 264 -265 1391 0
-1392 245 265 264 0
245 264 -265 1392 0
-246 266 -265 -1393 0
-246 -266 -265 1393 0
246 266 -265 -1394 0
1394 -266 -265 246 0
-246 -1395 266 265 0
-246 1395 265 -266 0
246 -1396 266 265 0
246 1396 265 -266 0
-247 -266 267 -1397 0
-247 -266 -267 1397 0
-1398 -266 247 267 0
1398 -266 -267 247 0
-247 266 267 -1399 0
-247 266 -267 1399 0
-1400 266 247 267 0
1400 266 -267 247 0
-248 -268 0
-267 -268 0
248 267 268 0
-1405 -268 269 0
1405 -268 -269 0
-249 268 269 -1407 0
-249 268 -269 1407 0
249 -1408 269 0
249 1408 -269 0
-250 -269 270 -1409 0
-250 -269 -270 1409 0
250 -269 270 -1410 0
1410 -269 -270 250 0
-250 269 270 -1411 0
-250 269 -270 1411 0
250 269 270 -1412 0
250 269 -270 1412 0
-251 271 0
-270 271 0
251 -271 270 0
-252 -1417 272 0
-252 1417 -272 0
-1418 -271 252 272 0
1418 -271 252 -272 0
-1420 271 272 0
1420 271 -272 0
253 -274 272 1424 0
253 274 272 -1424 0
254 -253 272 -274 1423 0
254 -253 272 274 -1423 0
253 -274 -272 1422 0
-254 -274 272 -1423 0
254 -253 -274 -272 1421 0
253 -1422 -272 274 0
254 -253 274 -272 -1421 0
-254 -274 -272 -1421 0
-254 274 272 1423 0
-254 274 -272 1421 0
-274 275 -255 -1429 0
1429 -274 -275 -255 0
255 -274 275 -1430 0
1430 -274 -275 255 0
274 275 -255 -1431 0
274 -275 -255 1431 0
255 274 275 -1432 0
255 274 -275 1432 0
-236 276 0
-277 -276 0
277 276 0
-258 278 -277 -1441 0
1441 -258 -277 -278 0
258 278 -277 -1442 0
1442 -277 -278 258 0
-258 278 277 -1443 0
1443 -258 277 -278 0
258 278 277 -1444 0
258 277 -278 1444 0
-239 -258 -279 -1367 0
-258 239 279 -278 1368 0
278 -279 0
-1453 281 -261 0
1453 -261 -281 0
261 -1454 281 0
261 1454 -281 0
1455 -262 -283 -281 263 0
281 262 283 -1458 0
281 262 -283 263 1458 0
281 -262 283 -1457 0
-262 281 -283 263 1457 0
262 -281 283 -1456 0
-263 283 0
-262 -281 283 -1455 0
-281 263 -283 262 1456 0
265 -285 -283 0
-265 285 0
-264 -285 265 0
-266 -1471 286 -285 0
-266 -286 -285 1471 0
266 -1472 286 -285 0
1472 -286 -285 266 0
-266 -1473 286 285 0
-266 -286 285 1473 0
266 -1474 286 285 0
266 -286 285 1474 0
-267 -286 287 -1475 0
-267 -286 -287 1475 0
-1476 -286 287 267 0
1476 -286 -287 267 0
-267 286 287 -1477 0
-267 1477 -287 286 0
-1478 286 287 267 0
1478 267 286 -287 0
-268 288 -287 -1479 0
-268 -288 -287 1479 0
268 288 -287 -1480 0
1480 -288 -287 268 0
-268 288 287 -1481 0
-268 -288 287 1481 0
268 288 287 -1482 0
268 -288 287 1482 0
-288 -269 289 -1483 0
-288 -269 -289 1483 0
-288 269 289 -1484 0
-288 1484 -289 269 0
-269 288 289 -1485 0
-269 288 -289 1485 0
288 269 289 -1486 0
269 288 -289 1486 0
-270 -1487 -289 290 0
-270 -290 -289 1487 0
270 -1488 -289 290 0
1488 -290 -289 270 0
-270 -1489 290 289 0
-270 -290 289 1489 0
270 -1490 290 289 0
1490 270 289 -290 0
-272 292 290 0
-272 271 292 0
272 -290 292 -271 0
-290 -272 -292 -271 0
272 -292 290 0
271 272 -292 0
-292 293 0
292 -293 0
-274 -293 294 -1503 0
-274 -293 -294 1503 0
274 -293 294 -1504 0
1504 -293 -294 274 0
-274 293 294 -1505 0
-274 293 -294 1505 0
274 293 294 -1506 0
274 293 -294 1506 0
-275 -294 295 -1507 0
-275 -294 -295 1507 0
275 -294 295 -1508 0
1508 -294 -295 275 0
-275 294 295 -1509 0
-275 294 -295 1509 0
275 294 295 -1510 0
275 294 -295 1510 0
-276 -296 0
-296 -295 0
276 296 295 0
-1515 -296 297 0
1515 -296 -297 0
-277 297 296 -1517 0
-277 -297 296 1517 0
-1518 277 297 0
1518 277 -297 0
-278 -298 -297 0
278 298 0
297 298 0
-279 -298 299 -1523 0
-279 -298 -299 1523 0
279 -298 299 -1524 0
1524 -298 -299 279 0
-279 298 299 -1525 0
-279 298 -299 1525 0
279 298 299 -1526 0
279 298 -299 1526 0
-283 304 0
283 -304 0
264 283 285 0
1545 -285 -306 -304 0
285 304 306 286 -1548 0
304 285 -306 1548 0
304 -285 286 306 -1547 0
304 -285 -306 1547 0
285 -304 306 286 -1546 0
-286 -306 0
-285 -304 306 286 -1545 0
-304 285 -306 1546 0
287 290 -310 0
-306 -329 0
-290 310 0
-289 290 -310 0
311 -310 0
310 -311 0
-1573 -292 312 -311 0
1573 -292 -311 -312 0
-1574 292 -311 312 0
1574 292 -311 -312 0
-1575 312 311 -292 0
1575 -312 311 -292 0
-1576 292 311 312 0
1576 292 311 -312 0
-293 -312 313 -1577 0
-293 -312 -313 1577 0
293 -312 313 -1578 0
1578 -312 -313 293 0
-293 312 313 -1579 0
-293 312 -313 1579 0
293 312 313 -1580 0
293 312 -313 1580 0
-294 -1581 -313 314 0
-294 -314 -313 1581 0
294 -1582 -313 314 0
1582 -314 -313 294 0
-294 -1583 314 313 0
-294 -314 313 1583 0
294 -1584 314 313 0
294 -314 313 1584 0
-295 315 0
-314 315 0
295 -315 314 0
-296 -315 316 -1589 0
-296 -315 -316 1589 0
-1590 -315 316 296 0
1590 -315 -316 296 0
-296 315 316 -1591 0
-296 315 -316 1591 0
296 315 316 -1592 0
296 315 -316 1592 0
-1593 -297 -316 317 0
1593 -317 -316 -297 0
297 317 -316 -1594 0
1594 -317 -316 297 0
-1595 -297 316 317 0
1595 -297 316 -317 0
297 317 316 -1596 0
297 -317 316 1596 0
-317 -298 318 -1597 0
-317 -298 -318 1597 0
-317 298 318 -1598 0
-317 1598 -318 298 0
-298 317 318 -1599 0
-298 317 -318 1599 0
317 298 318 -1600 0
298 317 -318 1600 0
-299 -318 -339 0
-299 318 339 0
289 310 -287 306 0
1631 -329 0
-306 290 -310 0
306 -287 329 -1631 0
287 -329 0
-310 -329 -330 0
310 330 0
330 329 0
-331 -311 -330 0
311 331 0
330 331 0
-312 -331 332 -1651 0
-312 -331 -332 1651 0
312 -331 332 -1652 0
1652 -331 -332 312 0
-312 331 332 -1653 0
-312 331 -332 1653 0
312 331 332 -1654 0
312 331 -332 1654 0
1655 -313 -334 -332 0
313 332 314 334 -1658 0
313 332 -334 1658 0
-313 332 334 314 -1657 0
-313 332 -334 1657 0
313 -332 334 314 -1656 0
-314 -334 0
-313 -332 334 314 -1655 0
313 -332 -334 1656 0
-315 -1663 335 -334 0
-315 1663 -334 -335 0
315 -1664 335 -334 0
1664 315 -334 -335 0
-315 -1665 335 334 0
-315 1665 -335 334 0
315 -1666 335 334 0
315 1666 -335 334 0
1667 -316 -356 -335 0
316 335 356 -355 -1670 0
335 316 -356 1670 0
335 -316 -355 356 -1669 0
335 -316 -356 1669 0
316 -335 356 -355 -1668 0
-318 338 0
318 -338 0
299 -318 339 0
299 318 -339 0
-329 349 0
329 -349 0
-330 -1721 350 -349 0
-349 -330 -350 1721 0
330 -1722 350 0
330 1722 -350 0
-1723 349 350 0
1723 -350 349 0
-331 -350 351 -1725 0
-331 -350 -351 1725 0
331 -350 351 -1726 0
1726 -350 -351 331 0
-331 -1727 351 350 0
-331 1727 350 -351 0
331 -1728 351 350 0
331 1728 350 -351 0
-332 -351 352 0
332 -351 -352 0
-332 351 -352 0
332 351 352 0
-334 -354 0
334 354 0
-354 -335 355 -1741 0
-354 1741 -335 -355 0
-354 335 355 -1742 0
-354 1742 -355 335 0
354 -335 355 -1743 0
354 1743 -335 -355 0
354 335 355 -1744 0
335 354 -355 1744 0
-316 -335 356 -355 -1667 0
-335 316 -356 1668 0
355 -356 0
-357 -356 0
357 356 0
-1753 -338 -357 358 0
-338 1753 -357 -358 0
-1754 338 358 -357 0
1754 338 -357 -358 0
-1755 -338 357 358 0
-338 1755 357 -358 0
-1756 338 358 357 0
338 1756 357 -358 0
-1757 -339 -358 359 0
1757 -339 -358 -359 0
-1758 339 -358 359 0
1758 339 -358 -359 0
-1759 -339 358 359 0
-339 1759 -359 358 0
-1760 339 359 358 0
339 1760 358 -359 0
-349 370 0
-350 370 0
350 -370 349 0
-370 -351 371 -1803 0
-370 -351 -371 1803 0
-370 351 371 -1804 0
-370 1804 -371 351 0
-351 370 371 -1805 0
-351 370 -371 1805 0
370 351 371 -1806 0
351 370 -371 1806 0
1807 -352 -374 -371 0
371 352 374 -1810 0
371 1810 -374 352 0
371 -352 374 -1809 0
371 -352 -374 1809 0
352 -371 374 -1808 0
352 -371 -374 1808 0
-352 -371 374 -1807 0
1821 374 356 -355 377 0
1820 355 377 -374 0
1819 -374 356 -355 377 0
1900 394 -377 -396 0
374 -1822 355 -377 0
374 355 377 1822 0
-1821 374 -377 -355 0
357 -377 0
-1821 374 -355 396 0
-1831 -358 -377 378 0
1831 -358 -377 -378 0
-1832 378 -377 358 0
1832 -378 -377 358 0
-1833 -358 377 378 0
1833 -358 -378 377 0
-1834 378 377 358 0
1834 -378 377 358 0
-1835 -378 -359 379 0
1835 -378 -359 -379 0
-1836 -378 379 359 0
-378 1836 -379 359 0
-359 -1837 378 379 0
1837 -359 378 -379 0
-1838 378 379 359 0
378 1838 -379 359 0
394 -374 0
374 -394 0
1819 -396 -355 -394 1898 0
394 -396 -355 1900 1821 0
-1819 -377 -355 -374 0
394 -1900 396 0
1898 -394 -377 -396 0
355 -374 -377 -1820 0
-1898 -394 396 0
-374 -1819 396 -355 0
356 396 377 0
-396 -377 397 -1905 0
-396 -377 -397 1905 0
-396 377 397 -1906 0
-396 1906 -397 377 0
-377 396 397 -1907 0
-377 396 -397 1907 0
396 377 397 -1908 0
377 396 -397 1908 0
397 1915 -379 0
379 397 1916 0
-397 379 1914 0
-379 -397 1913 0
400 0
399 0
23 0
25 0
-26 0
-45 0
46 0
-65 0
-66 0
-85 0
86 0
87 0
-106 0
107 0
140 0
120 0
6 0
5 0
41 0
391 0
387 0
22 0
256 0
20 0
1 0
361 0
17 0
393 0
392 0
368 0
367 0
348 0
154 0
40 0
347 0
24 0
4 0
44 0
328 0
173 0
380 0
105 0
21 0
381 0
390 0
389 0
388 0
369 0
386 0
385 0
384 0
383 0
363 0
337 0
284 0
201 0
150 0
141 0
100 0
373 0
360 0
340 0
320 0
319 0
300 0
280 0
260 0
240 0
220 0
200 0
199 0
180 0
160 0
80 0
60 0
366 0
365 0
364 0
346 0
345 0
344 0
179 0
178 0
159 0
139 0
119 0
118 0
99 0
98 0
79 0
59 0
39 0
19 0
18 0
382 0
362 0
376 0
342 0
325 0
309 0
259 0
153 0
145 0
125 0
336 0
189 0
158 0
2 0
219 0
132 0
102 0
162 0
131 0
395 0
353 0
333 0
164 0
273 0
375 0
398 0
121 0
308 0
12 0
291 0
343 0
341 0
327 0
307 0
372 0
305 0
326 0
324 0
323 0
303 0
322 0
302 0
321 0
282 0
301 0
